proyfinal/src/viki/013/andrea/andrea-localstore/experimentInOfficeAgust.take6/worker_2/2f68c4ad-0995-40e6-93e7-9f0a1e9f31a2.als.cnf.out
Reading from standard input... Use '--help' for help.
============================[ Problem Statistics ]=============================
|                                                                             |
|  Number of variables:         87638                                         |
|  Number of clauses:          161767                                         |
|  Parse time:                   0.04 s                                       |
|                                                                             |
============================[ Search Statistics ]==============================
| Conflicts |          ORIGINAL         |          LEARNT          | Progress |
|           |    Vars  Clauses Literals |    Limit  Clauses Lit/Cl |          |
===============================================================================
|       100 |   63975   110828   276977 |    40636       99     22 | 27.001 % |
|       250 |   63975   110784   276887 |    44700      249     33 | 27.001 % |
|       475 |   63975   110784   276887 |    49170      474     34 | 27.001 % |
|       812 |   63975   110784   276887 |    54087      811     62 | 27.001 % |
|      1318 |   63975   110784   276887 |    59496     1317     62 | 27.001 % |
|      2077 |   53705    80666   202649 |    65446     2066     72 | 38.720 % |
|      3216 |   53678    80546   202297 |    71990     3149     81 | 38.750 % |
|      4924 |   53458    79782   200436 |    79189     4763     83 | 39.001 % |
|      7486 |   53088    78317   196984 |    87108     7277     73 | 39.424 % |
|     11330 |   53067    78240   196807 |    95819    11116     72 | 39.448 % |
|     17096 |   52852    77602   195290 |   105401    16844     72 | 39.693 % |
===============================================================================
restarts              : 84
conflicts             : 23086          (6779 /sec)
decisions             : 74668          (0.00 % random) (21924 /sec)
propagations          : 32186971       (9450807 /sec)
conflict literals     : 1663552        (49.09 % deleted)
Memory used           : 41.66 MB
CPU time              : 3.40574 s

INDETERMINATE
